(set-info :smt-lib-version 2.6)
(set-logic QF_UFLRA)
(set-info :source |
MathSat group

|)
(set-info :category "random")
(set-info :status sat)
(declare-fun x0 () Real)
(declare-fun x1 () Real)
(declare-fun x2 () Real)
(declare-fun x3 () Real)
(declare-fun x4 () Real)
(declare-fun x5 () Real)
(declare-fun x6 () Real)
(declare-fun x7 () Real)
(declare-fun x8 () Real)
(declare-fun x9 () Real)
(declare-fun x10 () Real)
(declare-fun x11 () Real)
(declare-fun x12 () Real)
(declare-fun x13 () Real)
(declare-fun x14 () Real)
(declare-fun x15 () Real)
(declare-fun x16 () Real)
(declare-fun x17 () Real)
(declare-fun x18 () Real)
(declare-fun x19 () Real)
(declare-fun x20 () Real)
(declare-fun x21 () Real)
(declare-fun x22 () Real)
(declare-fun x23 () Real)
(declare-fun x24 () Real)
(declare-fun x25 () Real)
(declare-fun x26 () Real)
(declare-fun x27 () Real)
(declare-fun x28 () Real)
(declare-fun x29 () Real)
(declare-fun x30 () Real)
(declare-fun x31 () Real)
(declare-fun x32 () Real)
(declare-fun x33 () Real)
(declare-fun x34 () Real)
(declare-fun x35 () Real)
(declare-fun x36 () Real)
(declare-fun x37 () Real)
(declare-fun x38 () Real)
(declare-fun x39 () Real)
(declare-fun x40 () Real)
(declare-fun x41 () Real)
(declare-fun x42 () Real)
(declare-fun x43 () Real)
(declare-fun x44 () Real)
(declare-fun x45 () Real)
(declare-fun x46 () Real)
(declare-fun x47 () Real)
(declare-fun x48 () Real)
(declare-fun x49 () Real)
(declare-fun f0_1 (Real) Real)
(declare-fun f0_2 (Real Real) Real)
(declare-fun f0_3 (Real Real Real) Real)
(declare-fun f0_4 (Real Real Real Real) Real)
(declare-fun P0 () Bool)
(declare-fun P1 () Bool)
(declare-fun P2 () Bool)
(declare-fun P3 () Bool)
(declare-fun P4 () Bool)
(declare-fun P5 () Bool)
(declare-fun P6 () Bool)
(declare-fun P7 () Bool)
(declare-fun P8 () Bool)
(declare-fun P9 () Bool)
(declare-fun P10 () Bool)
(declare-fun P11 () Bool)
(declare-fun P12 () Bool)
(declare-fun P13 () Bool)
(declare-fun P14 () Bool)
(declare-fun P15 () Bool)
(declare-fun P16 () Bool)
(declare-fun P17 () Bool)
(declare-fun P18 () Bool)
(declare-fun P19 () Bool)
(declare-fun P20 () Bool)
(declare-fun P21 () Bool)
(declare-fun P22 () Bool)
(declare-fun P23 () Bool)
(declare-fun P24 () Bool)
(declare-fun P25 () Bool)
(declare-fun P26 () Bool)
(declare-fun P27 () Bool)
(declare-fun P28 () Bool)
(declare-fun P29 () Bool)
(declare-fun P30 () Bool)
(declare-fun P31 () Bool)
(declare-fun P32 () Bool)
(declare-fun P33 () Bool)
(declare-fun P34 () Bool)
(declare-fun P35 () Bool)
(declare-fun P36 () Bool)
(declare-fun P37 () Bool)
(declare-fun P38 () Bool)
(declare-fun P39 () Bool)
(declare-fun P40 () Bool)
(declare-fun P41 () Bool)
(declare-fun P42 () Bool)
(declare-fun P43 () Bool)
(declare-fun P44 () Bool)
(declare-fun P45 () Bool)
(declare-fun P46 () Bool)
(declare-fun P47 () Bool)
(declare-fun P48 () Bool)
(declare-fun P49 () Bool)
(assert (let ((?v_66 (<= (- (- (* 6 x6) (* 24 x5)) (* 20 x44)) 23)) (?v_14 (* 5 x4)) (?v_84 (<= (- (- (* 8 x0) (* 16 x18)) (* 5 x47)) 5)) (?v_1 (* 2 x37))) (let ((?v_10 (<= (+ (- (* 24 x10) (* 4 x17)) ?v_1) 14)) (?v_4 (* 6 x43)) (?v_51 (* 23 x43)) (?v_194 (* 17 x12)) (?v_133 (* 18 x7))) (let ((?v_16 (< (+ (- (* 5 x3) ?v_4) (* 18 x47)) 0)) (?v_74 (< (- (- (* 3 x31) (* 10 x4)) (* 22 x46)) 1)) (?v_42 (<= (- (- (* 26 x28) (* 24 x1)) (* 12 x11)) 29)) (?v_204 (<= (- (- (* 16 x40) (* 23 x39)) (* 11 x47)) 23)) (?v_175 (distinct (+ (- (* 25 x12) (* 2 x33)) (* 15 x14)) 25)) (?v_65 (< (- (+ (* 12 x14) (* 26 x3)) (* 13 x7)) 26)) (?v_0 (distinct (- (- (* 2 x10) ?v_1) ?v_14) 25)) (?v_70 (distinct (f0_2 x0 x3) (f0_2 x21 x32))) (?v_144 (= (f0_2 x31 x40) (f0_2 x42 x22))) (?v_81 (f0_1 x43))) (let ((?v_58 (distinct x21 ?v_81)) (?v_47 (f0_1 x41))) (let ((?v_12 (= (f0_1 x28) ?v_47)) (?v_21 (= (f0_2 x15 x8) (f0_2 x32 x40))) (?v_162 (= (f0_2 x20 x19) x43)) (?v_54 (= (f0_2 x30 x29) x19)) (?v_43 (f0_1 x49))) (let ((?v_117 (= (f0_2 x43 x10) ?v_43)) (?v_9 (f0_1 x9))) (let ((?v_89 (= (f0_2 x24 x19) ?v_9)) (?v_100 (distinct (f0_2 x3 x26) (f0_1 x32))) (?v_107 (distinct (f0_1 x0) x42)) (?v_208 (distinct (f0_2 x48 x32) (f0_2 x10 x23))) (?v_69 (f0_1 x14))) (let ((?v_160 (= ?v_69 x6)) (?v_5 (distinct x19 (f0_2 x48 x15))) (?v_181 (= (f0_1 x48) (f0_2 x0 x27))) (?v_225 (f0_1 x39))) (let ((?v_213 (distinct ?v_47 ?v_225)) (?v_92 (= (f0_2 x8 x47) (f0_2 x29 x8))) (?v_132 (= (f0_2 x38 x0) (f0_2 x15 x3))) (?v_77 (distinct ?v_9 (f0_1 x16))) (?v_17 (f0_1 x2))) (let ((?v_19 (= ?v_17 (f0_1 x3))) (?v_87 (f0_1 x33)) (?v_56 (f0_1 x6))) (let ((?v_68 (distinct ?v_87 ?v_56)) (?v_31 (= (f0_2 x11 x31) x15)) (?v_108 (= ?v_17 (f0_2 x38 x5))) (?v_36 (distinct x36 (f0_2 x25 x21))) (?v_251 (= (f0_1 x36) x31)) (?v_127 (distinct x12 x11)) (?v_165 (distinct (f0_1 x21) ?v_47)) (?v_39 (= (f0_2 x37 x42) (f0_1 x13))) (?v_196 (= x34 x9)) (?v_126 (= (f0_1 x24) (f0_1 x12))) (?v_103 (distinct (f0_2 x35 x26) (f0_1 x19))) (?v_30 (f0_1 x4))) (let ((?v_33 (= ?v_43 ?v_30)) (?v_215 (distinct (f0_2 x19 x36) (f0_1 x23))) (?v_203 (distinct x6 ?v_56)) (?v_52 (distinct (f0_2 x45 x43) x47)) (?v_177 (= (f0_1 x35) (f0_2 x44 x11))) (?v_243 (= ?v_81 ?v_225)) (?v_193 (distinct (f0_2 x43 x3) (f0_2 x30 x36))) (?v_265 (distinct (f0_1 x38) x47)) (?v_115 (distinct (f0_2 x1 x3) x12)) (?v_53 (distinct (f0_2 x21 x25) (f0_2 x36 x36))) (?v_34 (distinct (f0_2 x32 x8) ?v_30)) (?v_83 (distinct (f0_2 x35 x42) (f0_1 x18))) (?v_26 (= (f0_2 x20 x13) (f0_2 x20 x9))) (?v_129 (= x33 (f0_2 x38 x45))) (?v_124 (= x18 (f0_2 x21 x5))) (?v_94 (= ?v_87 (f0_2 x29 x36))) (?v_159 (distinct (f0_2 x7 x1) ?v_17)) (?v_82 (= ?v_81 (f0_2 x41 x22))) (?v_67 (distinct ?v_69 x40))) (let ((?v_90 (not ?v_129)) (?v_2 (not P27)) (?v_8 (not P42)) (?v_75 (not ?v_70)) (?v_7 (not ?v_53)) (?v_60 (not ?v_10)) (?v_29 (not ?v_5)) (?v_255 (not P36)) (?v_6 (not ?v_177)) (?v_206 (not P34)) (?v_120 (not ?v_208)) (?v_24 (not ?v_19)) (?v_40 (not P30)) (?v_13 (not P49)) (?v_45 (not P13)) (?v_78 (not ?v_12)) (?v_99 (not ?v_84)) (?v_25 (not P5)) (?v_246 (not ?v_26)) (?v_233 (not P46)) (?v_32 (not P9)) (?v_85 (not ?v_132)) (?v_20 (not ?v_107)) (?v_48 (not ?v_203)) (?v_64 (not P39)) (?v_217 (not P20))) (let ((?v_264 (or ?v_217 P19)) (?v_57 (not ?v_21)) (?v_235 (not ?v_115)) (?v_50 (not ?v_54)) (?v_184 (not ?v_196)) (?v_72 (not P22)) (?v_76 (not ?v_34)) (?v_185 (not ?v_36)) (?v_71 (not P1)) (?v_153 (not P10)) (?v_44 (not ?v_42)) (?v_62 (not ?v_117)) (?v_63 (not P4)) (?v_151 (not P38)) (?v_91 (not P3)) (?v_146 (not P28)) (?v_155 (not ?v_16)) (?v_122 (not P32)) (?v_79 (not P23)) (?v_228 (not P44)) (?v_98 (not P48)) (?v_93 (not ?v_181)) (?v_104 (not P26)) (?v_141 (not ?v_66)) (?v_114 (not P19)) (?v_169 (not ?v_67)) (?v_128 (not ?v_68)) (?v_130 (not ?v_160)) (?v_112 (not P17)) (?v_201 (not P21)) (?v_86 (not ?v_74)) (?v_173 (not ?v_124)) (?v_96 (not ?v_83)) (?v_202 (not ?v_89)) (?v_212 (not P41)) (?v_198 (not P6)) (?v_191 (not ?v_82)) (?v_152 (not ?v_100)) (?v_207 (not ?v_31)) (?v_189 (not ?v_103)) (?v_170 (not P15)) (?v_224 (not P16)) (?v_209 (not P2)) (?v_135 (not ?v_92)) (?v_171 (not P8)) (?v_164 (not P12)) (?v_232 (not ?v_126)) (?v_190 (not P25)) (?v_172 (not ?v_39)) (?v_262 (not ?v_77)) (?v_148 (not ?v_265)) (?v_143 (not ?v_0)) (?v_223 (not ?v_65)) (?v_147 (not P29)) (?v_197 (not P24)) (?v_259 (not ?v_144)) (?v_221 (not ?v_175)) (?v_157 (not P33)) (?v_239 (not ?v_193)) (?v_166 (not ?v_215)) (?v_178 (not ?v_159)) (?v_168 (not ?v_108)) (?v_238 (not ?v_162)) (?v_258 (not P18)) (?v_229 (not ?v_165)) (?v_182 (not ?v_127)) (?v_244 (not P35)) (?v_245 (not P7)) (?v_248 (not ?v_33)) (?v_236 (not P40)) (?v_242 (not P45)) (?v_237 (not ?v_94)) (?v_231 (not P43)) (?v_220 (not ?v_213)) (?v_226 (not ?v_243)) (?v_260 (not P47)) (?v_247 (not P11)) (?v_252 (not ?v_204)) (?v_254 (not ?v_58)) (?v_261 (not P31)) (?v_253 (not P37)) (?v_257 (not P14)) (?v_256 (not ?v_251)) (?v_80 (< (- (* 2 x27) (* 4 x10)) 16)) (?v_28 (<= (+ (* 18 x17) (* 24 x46) (* 25 x20)) 26))) (let ((?v_49 (not ?v_28)) (?v_61 (<= (+ (* 5 x46) (* 9 x32)) 18)) (?v_150 (< (- (- x10 (* 5 x9)) (* 11 x16)) 28)) (?v_138 (<= (- (- (* 15 x43) (* 17 x11)) x40) 10))) (let ((?v_131 (not ?v_138)) (?v_101 (<= (- ?v_51 (* 23 x20)) 10)) (?v_188 (not ?v_61))) (let ((?v_125 (not ?v_101)) (?v_158 (not ?v_150)) (?v_214 (distinct (- (* 18 x14) ?v_194) 17)) (?v_263 (not ?v_80))) (let ((?v_216 (not ?v_214)) (?v_110 (<= (+ (* (- 10) x21) (* 23 x31) ?v_133) (- 3))) (?v_22 (<= (+ (- (* 16 x9) (* 17 x13)) ?v_194) (- 18))) (?v_15 (= (+ (* (- 15) x39) (* 13 x12) x32) 22))) (let ((?v_46 (not ?v_15)) (?v_137 (< (+ (- (* (- 21) x31) (* 27 x19)) (* 16 x5)) (- 7))) (?v_3 (<= (+ (* 2 x39) (* 20 x40) (* 15 x6)) (- 2))) (?v_88 (< (- (+ (* (- 7) x14) (* 9 x17)) (* 15 x31)) 9)) (?v_27 (< (- (* (- 3) x49) (* 23 x16)) 3)) (?v_11 (< (+ (* (- 13) x21) (* 2 x42) ?v_51) 17))) (let ((?v_55 (not ?v_3)) (?v_109 (< (- (- (* (- 9) x19) (* 7 x47)) ?v_4) 18))) (let ((?v_38 (not ?v_109)) (?v_18 (< (- (+ (* (- 13) x1) (* 19 x6)) 0) 12)) (?v_186 (< (+ (* (- 12) x12) x19 (* 5 x44)) (- 9)))) (let ((?v_142 (not ?v_186)) (?v_136 (<= (+ (* (- 18) x12) (* 27 x1)) (- 5)))) (let ((?v_35 (not ?v_136)) (?v_121 (not ?v_11)) (?v_59 (<= (- (+ (* (- 19) x25) (* 11 x5)) (* 15 x16)) 20)) (?v_95 (<= (- (+ (* (- 16) x10) (* 22 x39)) ?v_14) 24))) (let ((?v_113 (not ?v_95)) (?v_106 (< (+ (- (* (- 16) x41) (* 17 x47)) (* 25 x42)) 26)) (?v_23 (< (+ (* 4 x24) (* 3 x11)) (- 21)))) (let ((?v_145 (not ?v_23)) (?v_41 (= (+ (* (- 1) x39) (* 6 x18) (* 19 x1)) 29)) (?v_73 (not ?v_27)) (?v_37 (<= (- (* (- 12) x46) (* 23 x40)) (- 27)))) (let ((?v_149 (not ?v_41)) (?v_140 (= (+ (* 14 x14) (* 16 x33)) (- 26))) (?v_105 (<= (+ (- (* (- 27) x27) (* 24 x44)) (* 3 x34)) (- 20)))) (let ((?v_111 (not ?v_105)) (?v_97 (<= (+ (* 9 x49) (* 23 x10) (* 14 x15)) (- 11)))) (let ((?v_102 (not ?v_97)) (?v_192 (<= (- (- (* (- 17) x27) (* 7 x21)) 0) 2))) (let ((?v_118 (not ?v_192)) (?v_180 (not ?v_59)) (?v_174 (<= (- (+ (* (- 4) x18) (* 9 x2)) (* 15 x28)) (- 9)))) (let ((?v_195 (not ?v_174)) (?v_240 (not ?v_88)) (?v_116 (<= (+ (* (- 4) x44) (* 3 x6) (* 10 x49)) 24))) (let ((?v_199 (not ?v_116)) (?v_156 (<= (- (* 21 x20) (* 13 x16)) (- 4))) (?v_234 (not ?v_18)) (?v_154 (< (- (+ (* (- 4) x14) (* 6 x10)) (* 12 x30)) (- 11)))) (let ((?v_227 (not ?v_154)) (?v_134 (<= (- (+ (* (- 5) x46) (* 21 x11)) (* 18 x6)) (- 21)))) (let ((?v_222 (not ?v_134)) (?v_161 (not ?v_110)) (?v_119 (distinct (- (- (* 9 x48) x20) 0) (- 7))) (?v_187 (distinct (+ (* (- 23) x42) (* 13 x48)) 14))) (let ((?v_123 (not ?v_119)) (?v_167 (distinct (+ (* (- 3) x27) ?v_133 (* 14 x49)) (- 11)))) (let ((?v_139 (not ?v_167)) (?v_176 (not ?v_137)) (?v_200 (not ?v_140)) (?v_163 (not ?v_22)) (?v_183 (not ?v_106)) (?v_210 (not ?v_156)) (?v_219 (or ?v_142 ?v_173)) (?v_205 (< (- (* (- 3) x11) (* 26 x24)) (- 2))) (?v_179 (<= (+ (- (* (- 18) x28) (* 20 x46)) (* 20 x27)) (- 18)))) (let ((?v_250 (not ?v_179)) (?v_218 (not ?v_37)) (?v_241 (not ?v_205)) (?v_211 (<= (+ (* 13 x15) (* 18 x48) (* 25 x19)) (- 12)))) (let ((?v_230 (not ?v_211)) (?v_249 (not ?v_187))) (and (and (and (and (and (and (and (and (and (and (and (and (and (and (and (and (and (and (and (and (and (and (and (and (and (and (and (and (and (and (and (and (and (and (and (and (and (and (and (and (and (and (and (and (and (and (and (and (and (and (and (and (and (and (and (and (and (and (and (and (and (and (and (and (and (and (and (and (and (and (and (and (and (and (and (and (and (and (and (and (and (and (and (and (and (and (and (and (and (and (and (and (and (and (and (and (and (and (and (and (and (and (and (and (and (and (and (and (and (and (and (and (and (and (and (and (and (and (and (and (and (and (and (and (and (and (and (and (and (and (and (and (and (and (and (and (and (and (and (and (and (and (and (and (and (and (and (and (and (and (and (and (and (and (and (and (and (and (and (and (and (and (and (and (and (and (and (and (and (and (and (and (and (and (and (and (and (and (and (and (and (and (and (and (and (and (and (and (and (and (and (and (and (and (and (and (and (and (and (and (and (and (and (and (and (and (and (and (and (and (and (and (and (and (and (and (and (and (and (and (and (and (and (and (and (and (and (and (and (and (and (and (and (and (and (and (and (and (and (and (and (and (and (and (and (and (and (and (and (and (and (and (and (and (and (and (and (and (and (and (and (and (and (and (and (and (and (and (and (and (and (and (and (and (and (and (and (and (and (and (and (and (and (and (and (and (and (and (and (and (and (and (and (and (and (and (and (and (and (and (and (and (and (and (and (and (and (and (and (and (and (and (and (and (and (and (and (and (and (and (and (and (and (and (and (and (and (and (and (and (and (and (and (and (and (and (and (and (and (and (and (and (and (and (and (and (and (and (and (and (and (and (and (and (and (and (and (and (and (and (and (and (and (and (and (and (and (and (and (and (and (and (and (and (and (and (and (and (and (and (and (and (and (and (and (and (and (and (and (and (and (and (and (and (and (and (and (and (and (and (and (and (and (and (and (and (and (and (and (and (and (and (and (and (and (and (and (and (and (and (and (and (and (and (and (and (and (and (and (and (and (and (and (and (and (and (and (and (and (and (and (and (and (and (and (and (and (and (and (and (and (and (and (and (and (and (and (and (and (and (and (and (and (and (and (and (and (and (and (and (and (and (and (and (and (and (and (and (and (and (and (and (and (and (and (and (and (and (and (and (and (and (and (and (and (and (and (and (and (and (and (and (and (and (and (and (and (and (and (and (and (and (and (and (and (and (and (and (and (and (and (and (and (and (and (and (and (and (and (and (and (and (and (and (and (and (and (and (and (and (and (and (and (and (and (and (and (and (and (and (and (and (and (and (and (and (and (and (and (and (and (and (and (and (and (and (and (and (and (and (and (and (and (and (and (and (and (and (and (and (and (and (and (and (and (and (and (and (and (and (and (and (and (and (and (and (and (and (and (or (or ?v_110 ?v_89) ?v_22) (or (or P38 P4) ?v_46)) (or (or ?v_0 P21) P29)) (or (or ?v_90 ?v_16) P11)) (or (or ?v_92 ?v_137) ?v_2)) (or (or ?v_3 ?v_8) ?v_21)) (or (or ?v_0 ?v_80) ?v_75)) (or (or ?v_88 ?v_7) ?v_60)) (or (or ?v_204 ?v_2) ?v_27)) (or (or ?v_29 ?v_255) ?v_49)) (or (or P26 ?v_11) P37)) (or (or ?v_55 ?v_38) P41)) (or (or P18 ?v_6) ?v_206)) (or (or ?v_5 P25) ?v_12)) (or (or ?v_6 ?v_18) ?v_7)) (or (or ?v_142 ?v_120) ?v_24)) (or (or ?v_83 P9) ?v_35)) (or (or ?v_8 ?v_36) P26)) (or (or ?v_77 ?v_65) ?v_10)) (or (or P30 ?v_40) ?v_13)) (or (or ?v_127 ?v_45) ?v_121)) (or (or P38 ?v_59) ?v_78)) (or (or ?v_99 ?v_61) P18)) (or (or (not P0) P6) P11)) (or (or ?v_25 ?v_33) ?v_246)) (or (or P15 P4) ?v_233)) (or (or ?v_13 ?v_32) ?v_113)) (or (or ?v_85 ?v_106) P27)) (or (or ?v_15 ?v_16) ?v_150)) (or (or ?v_20 ?v_48) ?v_108)) (or (or ?v_64 ?v_18) ?v_19)) (or (or ?v_20 P34) ?v_21)) (or (or ?v_31 ?v_145) ?v_52)) (or (or ?v_42 ?v_22) ?v_131)) (or (or ?v_41 ?v_23) ?v_39)) (or ?v_264 ?v_24)) (or (or ?v_57 ?v_25) ?v_26)) (or (or ?v_73 ?v_28) ?v_29)) (or (or ?v_235 ?v_58) ?v_34)) (or (or ?v_50 ?v_184) ?v_31)) (or (or ?v_32 ?v_37) ?v_72)) (or (or P7 ?v_33) ?v_76)) (or (or ?v_35 ?v_185) ?v_37)) (or (or ?v_71 ?v_38) ?v_39)) (or (or ?v_74 ?v_40) ?v_153)) (or (or ?v_149 ?v_44) ?v_35)) (or (or ?v_62 ?v_63) ?v_151)) (or (or ?v_28 ?v_140) ?v_44)) (or (or ?v_45 ?v_46) ?v_91)) (or (or ?v_146 ?v_111) ?v_165)) (or (or ?v_155 ?v_122) P9)) (or (or P36 ?v_42) ?v_48)) (or (or ?v_49 ?v_24) ?v_50)) (or (or ?v_101 ?v_52) ?v_53)) (or (or ?v_25 ?v_6) ?v_54)) (or (or ?v_13 ?v_44) ?v_55)) (or (or ?v_68 ?v_41) ?v_20)) (or (or ?v_102 P34) ?v_12)) (or (or ?v_79 P41) ?v_50)) (or (or ?v_57 ?v_118) P17)) (or (or ?v_10 ?v_58) ?v_180)) (or (or ?v_60 P17) ?v_228)) (or (or ?v_98 ?v_61) ?v_93)) (or (or ?v_62 ?v_162) ?v_63)) (or (or ?v_103 P42) ?v_104)) (or (or P32 ?v_67) ?v_141)) (or (or ?v_64 ?v_65) ?v_66)) (or (or P41 ?v_114) ?v_40)) (or (or P5 ?v_40) ?v_16)) (or (or P43 ?v_100) ?v_29)) (or (or P34 ?v_169) ?v_128)) (or (or ?v_130 ?v_40) ?v_70)) (or (or ?v_112 P35) ?v_71)) (or (or P39 ?v_72) P9)) (or (or ?v_73 ?v_201) ?v_86)) (or (or ?v_75 ?v_76) P14)) (or (or ?v_35 ?v_19) ?v_11)) (or (or ?v_144 P46) ?v_66)) (or (or ?v_77 ?v_78) ?v_79)) (or (or ?v_173 ?v_80) ?v_82)) (or (or ?v_82 ?v_96) ?v_53)) (or (or ?v_58 ?v_74) ?v_84)) (or (or ?v_85 ?v_195) ?v_86)) (or (or ?v_83 ?v_94) ?v_240)) (or (or ?v_202 ?v_24) P37)) (or (or ?v_212 ?v_90) ?v_91)) (or (or P3 ?v_198) ?v_92)) (or (or ?v_93 ?v_94) P23)) (or (or ?v_95 ?v_96) ?v_191)) (or (or P46 ?v_97) ?v_98)) (or (or ?v_99 ?v_199) ?v_19)) (or (or ?v_152 P40) ?v_156)) (or (or ?v_101 ?v_22) P6)) (or (or ?v_25 ?v_234) P33)) (or (or ?v_41 ?v_102) ?v_103)) (or (or ?v_104 ?v_105) ?v_77)) (or (or ?v_106 ?v_107) ?v_207)) (or (or ?v_108 ?v_189) ?v_38)) (or (or ?v_109 ?v_27) P20)) (or (or P46 ?v_60) ?v_92)) (or (or ?v_53 ?v_13) P46)) (or (or ?v_170 ?v_188) ?v_224)) (or (or ?v_209 ?v_227) ?v_222)) (or (or ?v_161 ?v_111) ?v_135)) (or (or P49 ?v_171) ?v_84)) (or (or ?v_112 ?v_119) ?v_113)) (or (or ?v_114 ?v_115) P49)) (or (or ?v_116 ?v_117) ?v_40)) (or (or ?v_187 ?v_118) ?v_26)) (or (or P39 ?v_114) ?v_123)) (or (or P25 ?v_120) P26)) (or (or ?v_121 P12) ?v_90)) (or (or ?v_73 P48) ?v_122)) (or (or P27 ?v_125) ?v_123)) (or (or ?v_13 ?v_126) P9)) (or (or ?v_124 ?v_37) ?v_164)) (or (or ?v_125 ?v_23) ?v_107)) (or (or ?v_108 P27) ?v_232)) (or (or ?v_95 P24) ?v_127)) (or (or ?v_92 ?v_127) ?v_128)) (or (or ?v_118 P28) P6)) (or (or ?v_129 ?v_190) ?v_109)) (or (or ?v_94 ?v_117) ?v_172)) (or (or ?v_32 ?v_130) ?v_6)) (or (or P8 P14) ?v_131)) (or (or ?v_262 ?v_132) ?v_116)) (or (or P35 ?v_73) ?v_139)) (or (or ?v_134 ?v_20) ?v_148)) (or (or ?v_88 ?v_135) P11)) (or (or ?v_143 ?v_136) ?v_40)) (or (or ?v_26 ?v_223) ?v_176)) (or (or ?v_20 ?v_89) ?v_85)) (or (or ?v_11 ?v_138) P26)) (or (or ?v_135 ?v_139) P49)) (or (or ?v_200 ?v_103) P42)) (or (or P37 ?v_32) ?v_141)) (or (or ?v_142 ?v_98) ?v_147)) (or (or ?v_143 ?v_75) ?v_52)) (or (or ?v_197 ?v_259) ?v_130)) (or (or ?v_0 ?v_130) P4)) (or (or ?v_145 P47) ?v_136)) (or (or ?v_142 ?v_58) P0)) (or (or ?v_90 P12) P10)) (or (or P14 P32) ?v_46)) (or (or ?v_15 ?v_163) ?v_108)) (or (or ?v_98 ?v_221) ?v_146)) (or (or ?v_147 ?v_104) ?v_148)) (or (or ?v_157 ?v_149) ?v_108)) (or (or ?v_124 ?v_239) ?v_13)) (or (or ?v_62 ?v_183) ?v_158)) (or (or ?v_166 ?v_114) ?v_0)) (or (or P27 ?v_151) P16)) (or (or P35 ?v_21) ?v_152)) (or (or ?v_153 ?v_37) P40)) (or (or ?v_154 ?v_155) ?v_35)) (or (or ?v_48 ?v_210) ?v_157)) (or (or ?v_49 ?v_159) ?v_107)) (or (or ?v_158 ?v_106) ?v_29)) (or (or ?v_85 ?v_178) ?v_62)) (or (or ?v_78 ?v_160) ?v_168)) (or (or ?v_18 ?v_124) ?v_148)) (or (or ?v_37 P3) ?v_161)) (or (or ?v_238 ?v_44) P9)) (or (or ?v_163 ?v_115) ?v_164)) (or (or ?v_258 P6) ?v_85)) (or (or ?v_229 ?v_155) ?v_67)) (or (or ?v_163 ?v_166) ?v_108)) (or (or P47 P28) ?v_167)) (or (or ?v_65 ?v_168) P2)) (or (or ?v_169 ?v_136) ?v_170)) (or (or ?v_71 ?v_171) ?v_172)) (or ?v_219 ?v_16)) (or (or ?v_174 ?v_175) ?v_104)) (or (or ?v_89 ?v_26) ?v_70)) (or (or ?v_50 ?v_182) ?v_205)) (or (or ?v_86 ?v_155) P6)) (or (or P12 P34) ?v_176)) (or (or ?v_54 ?v_71) ?v_177)) (or (or ?v_138 ?v_142) ?v_110)) (or (or ?v_179 ?v_167) ?v_137)) (or (or ?v_75 P35) ?v_64)) (or (or ?v_62 ?v_178) ?v_250)) (or (or ?v_244 ?v_111) P6)) (or (or ?v_180 P5) P33)) (or (or ?v_170 P37) ?v_64)) (or (or ?v_162 ?v_130) P38)) (or (or P37 ?v_80) ?v_181)) (or (or ?v_93 P29) ?v_245)) (or (or ?v_100 ?v_248) ?v_22)) (or (or ?v_218 ?v_182) ?v_144)) (or (or ?v_20 ?v_3) P23)) (or (or ?v_153 ?v_152) ?v_164)) (or (or ?v_181 ?v_183) ?v_150)) (or (or ?v_123 ?v_158) ?v_10)) (or (or P26 ?v_184) ?v_99)) (or (or ?v_185 ?v_186) ?v_103)) (or (or ?v_54 ?v_187) ?v_70)) (or (or ?v_188 ?v_103) ?v_45)) (or (or ?v_18 ?v_187) ?v_145)) (or (or ?v_26 ?v_171) P35)) (or (or ?v_44 P38) ?v_23)) (or (or ?v_189 ?v_32) ?v_134)) (or (or ?v_162 ?v_157) ?v_190)) (or (or ?v_178 ?v_236) ?v_191)) (or (or ?v_55 ?v_130) ?v_165)) (or (or ?v_150 ?v_68) ?v_192)) (or (or ?v_34 ?v_172) ?v_101)) (or (or P13 ?v_193) ?v_186)) (or (or P7 P25) ?v_214)) (or (or P23 ?v_195) ?v_196)) (or (or ?v_13 ?v_37) ?v_242)) (or (or P20 ?v_106) ?v_126)) (or (or ?v_53 ?v_126) ?v_197)) (or (or ?v_92 ?v_83) ?v_60)) (or (or ?v_41 ?v_62) P47)) (or (or P20 ?v_40) ?v_198)) (or (or ?v_100 ?v_187) ?v_104)) (or (or ?v_137 ?v_140) ?v_192)) (or (or ?v_149 ?v_199) P8)) (or (or ?v_200 ?v_125) P48)) (or (or ?v_201 ?v_196) ?v_34)) (or (or ?v_10 ?v_139) ?v_83)) (or (or ?v_154 ?v_183) ?v_31)) (or (or ?v_38 ?v_144) ?v_175)) (or (or P11 ?v_202) ?v_39)) (or (or ?v_37 ?v_190) ?v_203)) (or (or ?v_102 ?v_11) ?v_202)) (or (or P46 P24) ?v_107)) (or (or ?v_131 ?v_204) ?v_177)) (or (or ?v_88 ?v_92) ?v_80)) (or (or ?v_188 ?v_202) P31)) (or (or ?v_155 ?v_46) ?v_91)) (or (or ?v_167 ?v_150) ?v_108)) (or (or ?v_123 ?v_119) ?v_10)) (or (or ?v_241 ?v_79) ?v_15)) (or (or ?v_82 ?v_203) P25)) (or (or P17 ?v_130) P31)) (or (or ?v_237 ?v_137) ?v_170)) (or (or P30 ?v_155) ?v_231)) (or (or ?v_129 ?v_36) P6)) (or (or ?v_116 ?v_183) P19)) (or (or ?v_29 ?v_206) ?v_132)) (or (or P33 ?v_207) ?v_140)) (or (or ?v_50 ?v_208) ?v_189)) (or (or ?v_184 P42) ?v_83)) (or (or P6 ?v_164) ?v_44)) (or (or ?v_89 ?v_203) ?v_188)) (or (or ?v_90 P33) ?v_25)) (or (or ?v_202 ?v_126) ?v_36)) (or (or ?v_169 ?v_0) ?v_10)) (or (or ?v_25 ?v_21) ?v_211)) (or (or ?v_62 ?v_209) ?v_180)) (or (or ?v_49 ?v_210) ?v_230)) (or (or ?v_41 ?v_18) ?v_142)) (or (or ?v_37 P31) ?v_41)) (or (or ?v_123 ?v_213) ?v_101)) (or (or P13 ?v_158) ?v_20)) (or (or ?v_179 ?v_212) ?v_16)) (or (or P21 ?v_220) P13)) (or (or ?v_263 ?v_44) P6)) (or (or ?v_99 ?v_5) ?v_139)) (or (or P24 ?v_196) ?v_25)) (or (or ?v_189 P45) ?v_173)) (or (or ?v_46 ?v_216) ?v_54)) (or (or ?v_215 ?v_45) ?v_24)) (or (or ?v_216 ?v_195) ?v_108)) (or (or ?v_217 ?v_218) ?v_201)) (or ?v_219 P23)) (or (or P6 ?v_57) P3)) (or (or ?v_42 ?v_111) ?v_220)) (or (or ?v_109 ?v_110) ?v_221)) (or (or ?v_170 P31) ?v_40)) (or (or ?v_193 ?v_11) ?v_177)) (or (or ?v_166 ?v_38) ?v_27)) (or (or P46 ?v_205) ?v_19)) (or (or ?v_50 ?v_213) ?v_36)) (or (or ?v_99 ?v_77) ?v_144)) (or (or P10 ?v_18) P11)) (or (or ?v_32 ?v_31) ?v_222)) (or (or P44 ?v_195) P30)) (or (or ?v_172 ?v_66) P36)) (or (or ?v_223 ?v_224) ?v_167)) (or (or P0 ?v_179) ?v_134)) (or (or ?v_224 ?v_104) ?v_77)) (or (or P43 ?v_12) ?v_148)) (or (or ?v_213 ?v_19) ?v_198)) (or (or P14 ?v_226) ?v_72)) (or (or ?v_42 ?v_226) ?v_147)) (or (or ?v_3 ?v_88) ?v_198)) (or (or ?v_85 P6) ?v_55)) (or (or ?v_82 ?v_36) ?v_188)) (or (or ?v_218 ?v_227) ?v_74)) (or (or ?v_86 ?v_228) P41)) (or (or ?v_114 ?v_63) ?v_189)) (or (or P33 P47) ?v_96)) (or (or ?v_80 ?v_20) ?v_151)) (or (or P6 ?v_188) ?v_148)) (or (or ?v_145 P32) ?v_10)) (or (or ?v_260 ?v_203) P36)) (or (or ?v_177 ?v_164) ?v_124)) (or (or ?v_176 ?v_107) ?v_42)) (or (or P38 ?v_19) ?v_186)) (or (or ?v_76 ?v_61) ?v_134)) (or (or ?v_137 ?v_49) P21)) (or (or P32 ?v_109) ?v_229)) (or (or ?v_230 P13) ?v_220)) (or (or ?v_247 ?v_171) ?v_231)) (or (or ?v_10 P29) P22)) (or (or ?v_171 ?v_151) ?v_59)) (or (or ?v_134 ?v_168) ?v_196)) (or (or ?v_208 ?v_68) ?v_108)) (or (or ?v_123 ?v_60) ?v_27)) (or (or P3 ?v_228) ?v_153)) (or (or ?v_129 ?v_252) ?v_215)) (or (or ?v_84 ?v_127) ?v_222)) (or (or ?v_203 ?v_173) ?v_230)) (or (or ?v_128 ?v_204) P26)) (or (or ?v_66 ?v_181) ?v_189)) (or (or ?v_230 ?v_232) ?v_233)) (or (or ?v_83 ?v_222) ?v_29)) (or (or ?v_32 ?v_150) ?v_254)) (or (or ?v_96 ?v_44) ?v_8)) (or (or ?v_147 ?v_261) ?v_66)) (or (or ?v_18 ?v_234) ?v_221)) (or (or ?v_214 ?v_253) P46)) (or (or ?v_193 ?v_57) ?v_188)) (or (or ?v_235 ?v_38) P24)) (or (or P13 ?v_44) ?v_236)) (or (or ?v_182 ?v_119) ?v_201)) (or (or ?v_54 ?v_38) P13)) (or (or ?v_107 ?v_201) P14)) (or (or ?v_227 ?v_127) ?v_113)) (or (or ?v_193 ?v_52) ?v_237)) (or (or ?v_74 ?v_204) P0)) (or (or ?v_62 ?v_75) ?v_126)) (or (or ?v_164 ?v_40) ?v_238)) (or (or ?v_202 ?v_171) ?v_70)) (or (or P39 ?v_88) ?v_239)) (or (or P44 ?v_205) ?v_34)) (or (or ?v_189 ?v_240) ?v_191)) (or (or ?v_42 P28) ?v_166)) (or (or ?v_143 P8) ?v_124)) (or (or ?v_19 ?v_209) ?v_241)) (or (or ?v_108 ?v_157) ?v_118)) (or (or P35 ?v_242) ?v_186)) (or (or ?v_76 ?v_140) ?v_94)) (or (or ?v_240 ?v_216) ?v_238)) (or (or ?v_236 P48) P33)) (or (or ?v_146 ?v_28) ?v_169)) (or (or ?v_106 ?v_126) ?v_200)) (or (or P8 ?v_70) ?v_243)) (or (or ?v_101 ?v_213) P11)) (or (or ?v_137 ?v_40) ?v_232)) (or (or ?v_210 ?v_29) P29)) (or (or ?v_78 ?v_8) ?v_187)) (or (or ?v_105 P21) ?v_160)) (or (or ?v_168 ?v_174) ?v_104)) (or (or ?v_147 ?v_37) ?v_8)) (or (or ?v_38 ?v_123) ?v_15)) (or (or ?v_214 ?v_143) P36)) (or (or ?v_251 ?v_101) ?v_107)) (or (or ?v_23 ?v_33) ?v_59)) (or (or ?v_120 ?v_102) ?v_31)) (or (or P39 ?v_228) P48)) (or (or ?v_145 ?v_97) ?v_242)) (or (or ?v_112 P30) ?v_105)) (or (or ?v_126 ?v_152) ?v_216)) (or (or ?v_244 ?v_137) ?v_40)) (or (or ?v_61 P43) ?v_85)) (or (or ?v_15 ?v_65) ?v_102)) (or (or ?v_245 ?v_175) ?v_222)) (or (or ?v_6 P39) P8)) (or (or P15 ?v_145) ?v_175)) (or (or ?v_136 ?v_103) ?v_228)) (or (or ?v_158 ?v_74) ?v_169)) (or (or P35 ?v_155) P49)) (or (or ?v_34 P16) ?v_131)) (or (or ?v_90 ?v_249) ?v_31)) (or (or ?v_147 ?v_241) ?v_72)) (or (or ?v_240 ?v_102) P1)) (or (or ?v_115 ?v_40) ?v_3)) (or (or ?v_74 P8) ?v_246)) (or (or P35 ?v_179) ?v_61)) (or (or ?v_213 ?v_173) ?v_221)) (or (or ?v_37 ?v_181) ?v_247)) (or (or ?v_239 ?v_50) ?v_210)) (or (or ?v_149 P33) ?v_146)) (or (or ?v_170 ?v_149) ?v_195)) (or (or ?v_123 ?v_100) ?v_195)) (or (or ?v_45 ?v_248) ?v_108)) (or (or ?v_191 ?v_62) ?v_228)) (or (or ?v_58 P13) ?v_88)) (or (or ?v_136 ?v_257) ?v_32)) (or (or ?v_106 ?v_115) ?v_182)) (or (or P8 ?v_226) ?v_109)) (or (or ?v_185 ?v_24) ?v_211)) (or (or ?v_52 P23) ?v_208)) (or (or ?v_75 ?v_192) P6)) (or (or ?v_94 ?v_136) P10)) (or (or ?v_31 ?v_248) ?v_230)) (or (or ?v_168 ?v_195) ?v_226)) (or (or ?v_161 P15) ?v_76)) (or (or ?v_91 ?v_204) ?v_195)) (or (or ?v_67 P15) ?v_54)) (or (or ?v_10 ?v_68) ?v_236)) (or (or ?v_195 ?v_121) P19)) (or (or ?v_55 ?v_91) ?v_93)) (or (or P15 ?v_213) ?v_99)) (or (or ?v_75 ?v_249) P43)) (or (or ?v_6 ?v_184) ?v_101)) (or (or ?v_250 P10) ?v_80)) (or (or P41 ?v_256) ?v_98)) (or (or ?v_238 ?v_16) ?v_239)) (or (or ?v_15 ?v_252) ?v_236)) (or (or ?v_164 P41) P16)) (or (or ?v_130 ?v_156) ?v_19)) (or (or ?v_71 ?v_216) ?v_101)) (or (or ?v_44 ?v_96) ?v_98)) (or (or ?v_36 ?v_148) ?v_31)) (or (or ?v_233 ?v_74) ?v_244)) (or (or ?v_145 ?v_102) P29)) (or (or ?v_253 P38) ?v_235)) (or (or P27 ?v_29) ?v_24)) (or (or ?v_34 ?v_125) P24)) (or (or P31 ?v_11) ?v_126)) (or (or ?v_59 ?v_192) P21)) (or (or ?v_52 ?v_144) ?v_11)) (or (or P46 P48) ?v_177)) (or (or ?v_12 ?v_214) ?v_183)) (or (or ?v_121 ?v_227) P35)) (or (or ?v_175 ?v_111) ?v_197)) (or (or ?v_93 ?v_54) P38)) (or (or ?v_174 ?v_192) ?v_74)) (or (or ?v_184 ?v_110) ?v_140)) (or (or ?v_191 ?v_140) P47)) (or (or P36 ?v_103) ?v_245)) (or (or ?v_146 ?v_63) P23)) (or (or ?v_196 ?v_124) ?v_71)) (or (or ?v_189 ?v_204) ?v_233)) (or (or ?v_188 ?v_180) ?v_218)) (or (or ?v_132 ?v_86) ?v_253)) (or (or ?v_253 ?v_55) ?v_35)) (or (or ?v_191 ?v_2) ?v_153)) (or (or ?v_170 ?v_22) ?v_161)) (or (or ?v_230 P25) ?v_112)) (or (or ?v_141 ?v_2) ?v_138)) (or (or ?v_239 ?v_220) ?v_111)) (or (or ?v_127 ?v_230) ?v_254)) (or (or ?v_255 ?v_86) ?v_48)) (or (or ?v_134 ?v_180) ?v_118)) (or (or ?v_22 ?v_185) ?v_183)) (or (or ?v_90 ?v_170) ?v_248)) (or (or ?v_92 P11) ?v_159)) (or (or ?v_12 ?v_205) ?v_79)) (or (or ?v_163 ?v_184) P48)) (or (or ?v_48 P28) ?v_230)) (or (or P38 ?v_183) ?v_256)) (or (or ?v_223 ?v_206) ?v_242)) (or (or ?v_23 ?v_25) ?v_78)) (or (or ?v_102 ?v_6) P46)) (or (or ?v_121 ?v_61) ?v_40)) (or (or ?v_244 ?v_119) ?v_128)) (or (or ?v_169 P31) P5)) (or (or ?v_179 ?v_121) ?v_138)) (or (or ?v_246 ?v_245) ?v_214)) (or (or ?v_63 ?v_68) ?v_77)) (or (or ?v_257 ?v_104) P3)) (or (or ?v_144 ?v_146) P6)) (or (or ?v_72 ?v_39) ?v_153)) (or (or ?v_79 ?v_24) ?v_41)) (or (or ?v_125 ?v_99) ?v_196)) (or (or ?v_27 ?v_258) ?v_41)) (or (or ?v_135 ?v_54) ?v_177)) (or (or ?v_93 ?v_150) ?v_146)) (or (or ?v_159 ?v_11) ?v_218)) (or (or ?v_181 ?v_38) P43)) (or (or ?v_48 ?v_171) ?v_206)) (or (or ?v_197 P30) ?v_146)) (or (or ?v_251 ?v_70) ?v_96)) (or (or ?v_21 ?v_77) ?v_85)) (or (or ?v_184 ?v_241) P40)) (or (or ?v_231 ?v_198) ?v_102)) (or (or ?v_86 ?v_59) ?v_195)) (or (or P28 ?v_128) ?v_259)) (or (or P40 ?v_171) ?v_82)) (or (or P24 P2) P40)) (or (or ?v_92 ?v_176) ?v_189)) (or (or ?v_39 ?v_75) ?v_146)) (or (or ?v_61 ?v_131) ?v_213)) (or (or ?v_256 P36) ?v_170)) (or (or P2 P3) ?v_231)) (or (or P46 ?v_168) ?v_242)) (or (or P42 ?v_18) ?v_79)) (or (or ?v_115 ?v_160) ?v_195)) (or (or ?v_67 ?v_184) ?v_162)) (or (or ?v_113 ?v_138) P34)) (or (or ?v_151 ?v_236) ?v_102)) (or (or ?v_170 ?v_184) ?v_73)) (or (or P15 ?v_228) ?v_205)) (or (or ?v_126 ?v_187) ?v_90)) (or (or ?v_64 ?v_250) ?v_68)) (or (or P33 ?v_203) ?v_191)) (or (or ?v_198 ?v_73) ?v_110)) (or (or ?v_116 ?v_134) ?v_136)) (or (or ?v_65 P42) ?v_144)) (or (or ?v_140 ?v_260) P31)) (or (or ?v_256 ?v_99) P38)) (or (or ?v_160 ?v_226) ?v_159)) (or (or ?v_246 ?v_10) P30)) (or (or P6 P1) ?v_223)) (or (or ?v_248 ?v_139) ?v_179)) (or (or ?v_162 ?v_215) ?v_226)) (or (or P49 ?v_11) ?v_234)) (or (or ?v_189 P5) P35)) (or (or ?v_137 ?v_136) ?v_40)) (or (or ?v_48 ?v_127) ?v_46)) (or (or ?v_193 ?v_123) ?v_203)) (or (or ?v_10 ?v_70) ?v_62)) (or (or ?v_178 ?v_148) ?v_63)) (or (or ?v_251 P29) ?v_180)) (or (or ?v_117 ?v_117) ?v_204)) (or (or ?v_251 ?v_100) ?v_180)) (or (or ?v_143 ?v_241) ?v_88)) (or (or P31 P12) ?v_213)) (or (or ?v_104 ?v_109) P11)) (or (or ?v_44 P43) ?v_146)) (or (or ?v_16 ?v_172) ?v_88)) (or (or ?v_228 ?v_77) ?v_126)) (or (or ?v_46 P31) ?v_103)) (or (or ?v_25 ?v_129) P8)) (or (or ?v_237 ?v_209) P21)) (or (or ?v_222 ?v_143) ?v_3)) (or (or ?v_57 ?v_111) ?v_12)) (or (or ?v_120 ?v_137) ?v_165)) (or (or ?v_15 ?v_52) ?v_40)) (or (or ?v_207 ?v_235) ?v_203)) (or (or ?v_245 ?v_54) ?v_198)) (or (or P45 ?v_161) ?v_240)) (or (or ?v_153 ?v_210) ?v_261)) (or (or ?v_154 ?v_187) ?v_70)) (or (or ?v_205 ?v_125) ?v_12)) (or (or ?v_50 P35) ?v_161)) (or (or ?v_262 ?v_106) P32)) (or (or ?v_3 ?v_261) ?v_98)) (or (or P11 ?v_131) ?v_106)) (or (or ?v_83 ?v_55) ?v_77)) (or (or ?v_155 ?v_109) ?v_97)) (or (or ?v_85 ?v_157) ?v_258)) (or (or ?v_139 ?v_187) ?v_23)) (or (or P9 ?v_161) ?v_201)) (or (or ?v_213 ?v_8) ?v_28)) (or (or ?v_143 ?v_204) ?v_96)) (or (or P1 ?v_143) P31)) (or (or ?v_125 ?v_36) ?v_146)) (or (or ?v_166 ?v_228) ?v_144)) (or (or ?v_144 ?v_223) P49)) (or (or ?v_0 ?v_118) ?v_79)) (or (or ?v_251 P6) ?v_178)) (or (or ?v_223 P1) ?v_177)) (or (or ?v_135 ?v_146) ?v_58)) (or (or ?v_146 ?v_5) ?v_93)) (or (or ?v_217 ?v_196) ?v_0)) (or (or ?v_156 P18) ?v_251)) (or (or ?v_97 ?v_179) ?v_24)) (or (or P9 ?v_28) ?v_76)) (or (or ?v_29 ?v_138) P17)) (or (or ?v_62 ?v_263) ?v_146)) (or (or ?v_84 ?v_188) ?v_260)) (or (or ?v_126 ?v_179) ?v_211)) (or (or ?v_220 ?v_226) ?v_185)) (or (or ?v_262 ?v_89) ?v_116)) (or (or ?v_72 ?v_215) ?v_184)) (or (or ?v_173 P18) ?v_33)) (or (or ?v_97 ?v_181) P20)) (or (or ?v_55 ?v_151) ?v_18)) (or (or ?v_237 ?v_203) ?v_154)) (or (or P16 ?v_171) ?v_139)) (or (or ?v_24 ?v_98) ?v_15)) (or (or ?v_252 ?v_244) ?v_178)) (or (or P8 P47) P48)) (or ?v_264 ?v_138)) (or (or ?v_130 ?v_68) ?v_239)) (or (or ?v_252 P37) ?v_132)) (or (or P15 ?v_61) ?v_195)) (or (or ?v_210 ?v_37) P42)) (or (or ?v_79 P9) ?v_93)) (or (or ?v_40 ?v_77) ?v_95)) (or (or P17 ?v_85) P39)) (or (or ?v_118 P30) ?v_125)) (or (or ?v_244 ?v_251) ?v_91)) (or (or ?v_205 ?v_119) ?v_84)) (or (or ?v_182 ?v_74) ?v_265)) (or (or ?v_200 ?v_72) P44)) (or (or ?v_32 ?v_7) ?v_45)) (or (or ?v_151 ?v_96) ?v_33)) (or (or P27 ?v_160) ?v_200)) (or (or ?v_39 ?v_223) ?v_142)) (or (or ?v_142 ?v_73) ?v_26)) (or (or P7 ?v_239) ?v_258)) (or (or ?v_251 ?v_228) ?v_147))))))))))))))))))))))))))))))))))))))))
(check-sat)
(exit)
